32      4       
10      10      10      10      
0       0       0       0       0       2       2       3       
3       0       0       0       3       1       4       
8       0       6       0       0       1       8       
5       0       4       0       0       2       5       8       
2       0       0       0       3       1       6       
10      0       0       0       10      1       7       
3       0       0       10      0       1       9       
7       4       0       0       0       1       19      
4       0       0       3       0       1       10      
2       5       0       0       0       1       11      
6       0       6       0       0       1       12      
8       0       8       0       0       1       13      
8       0       0       0       7       1       14      
4       0       0       0       6       1       15      
10      0       0       6       0       1       16      
10      6       0       0       0       1       17      
10      0       0       2       0       1       18      
1       0       0       0       9       1       20      
3       0       0       0       6       1       21      
10      0       8       0       0       3       21      22      31      
1       0       0       2       0       1       25      
7       7       0       0       0       2       23      27      
9       0       6       0       0       1       24      
2       0       0       0       2       1       26      
3       0       3       0       0       1       27      
9       0       1       0       0       1       30      
4       0       9       0       0       1       28      
4       10      0       0       0       1       29      
9       9       0       0       0       1       32      
10      0       8       0       0       1       32      
8       0       2       0       0       1       32      
0       0       0       0       0       0       
